47        
ATP_C2
H 57.939999 68.537003 75.678001
H 55.532001 71.182999 77.674004
H 57.922001 70.647003 73.828003
H 57.610001 70.691002 76.911003
H 55.580002 71.677002 75.440002
H 56.952999 72.103996 73.555000
H 52.501999 65.343002 72.760002
H 56.988998 68.373001 77.966003
H 54.925999 68.214996 75.463997
H 58.358002 67.820000 73.862000
N 56.208000 67.584000 74.032997
N 54.042000 66.508003 73.490997
N 54.270000 64.735001 71.884003
N 57.467999 66.288002 72.657997
N 56.276001 64.206001 71.039001
C 56.243000 70.852997 75.175003
C 56.730999 70.212997 76.480003
C 56.943001 68.763000 76.056999
C 55.844002 68.582001 75.003998
C 55.360001 66.703003 73.416000
C 56.174999 65.931999 72.584000
C 53.576000 65.524002 72.712997
C 55.592999 64.931000 71.807999
C 57.458000 67.290001 73.550003
C 57.368999 71.447998 74.319000
O 55.602001 69.844002 74.421997
O 55.703999 70.267998 77.441002
O 56.765999 67.905998 77.156998
O 58.230999 72.174004 75.165001
O 59.319000 74.373001 74.349998
O 58.469002 74.370003 76.850998
O 56.709000 74.196999 74.821999
O 55.946999 73.524002 77.225998
O 54.106998 74.516998 75.610001
O 56.148998 76.054001 76.502998
O 56.077999 78.549004 75.908997
O 57.542000 76.964996 74.295998
O 54.737999 76.733002 74.309998
P 58.174999 73.762001 75.248001
P 55.786999 74.572998 76.057999
P 56.125999 77.085999 75.299004
H 55.761002 63.498001 70.511002
H 57.278999 64.398003 71.025002
H 59.063999 73.786003 77.306999
H 53.910999 73.672997 75.219002
H 58.299999 77.269997 74.780998
H 54.741001 75.811996 74.079002
